c --- [ banner ] -------------------------------------------------------------
c 
c CaDiCaL Radically Simplified CDCL SAT Solver
c Copyright (c) 2016-2021 A. Biere, M. Fleury, N. Froleyks
c 
c Version 1.5.2 a5f15211db36c3956764e18194dd5bd63bf3b5e6
c g++ (GCC) 9.3.0 -Wall -Wextra -O3 -DNDEBUG
c Fri Oct 21 01:27:37 EDT 2022 Linux gra-login3 3.10.0-1160.66.1.el7.x86_64 x86_64
c 
c --- [ limit ] --------------------------------------------------------------
c 
c setting conflict limit to 200000 conflicts (due to '200000')
c 
c --- [ parsing input ] ------------------------------------------------------
c 
c reading DIMACS file from '33.cubes4811.adj'
c opening file to read '33.cubes4811.adj'
c found 'p cnf 6160 1595472' header
c parsed 1595472 clauses in 21.21 seconds process time
c closing file '33.cubes4811.adj'
c after reading 1457566755 bytes 1390.0 MB
c 
c --- [ options ] ------------------------------------------------------------
c 
c all options are set to their default value
c 
c --- [ solving ] ------------------------------------------------------------
c 
c time measured in process time since initialization
c 
c  seconds    reductions  redundant   irredundant
c          MB     restarts       trail       variables
c            level   conflicts       glue         remaining
c 
c * 21.21 1377  0 0   0    0    0  0% 0 1595422 2412 39%
c { 22.24 1416  0 0   0    0    0  0% 0 1595422 2412 39%
c i 24.69 1476 829 0   3   36   32 38% 13 1595422 2406 39%
c i 25.87 1486 584 0   8   52   45 35% 15 1595422 2359 38%
c i 26.46 1488 483 0  12   68   57 33% 15 1595422 2358 38%
c i 26.79 1489 363 0  13   91   72 29% 12 1595422 2357 38%
c i 26.89 1489 359 0  13   92   72 29% 12 1595422 2356 38%
c i 28.64 1494 265 0  20  135  109 28% 15 1595422 2353 38%
c i 29.27 1497 236 0  27  175  135 28% 21 1595422 2352 38%
c i 30.20 1502 205 0  37  215  173 28% 25 1595422 2351 38%
c i 30.24 1502 203 0  38  217  174 28% 25 1595422 2350 38%
c i 31.23 1503 174 0  53  270  224 28% 26 1595422 2349 38%
c i 31.28 1503 172 0  53  274  227 28% 25 1595422 2348 38%
c i 31.29 1503 170 0  55  278  230 28% 25 1595422 2347 38%
c i 31.33 1503 166 0  55  287  236 28% 25 1595422 2346 38%
c i 31.39 1503 163 0  55  292  240 28% 25 1595422 2345 38%
c i 31.45 1504 161 0  57  303  247 28% 27 1595422 2343 38%
c - 35.29 1461 161 1  58  303  246 28% 27 185859 2343 38%
c i 35.48 1461 161 1  58  306  246 28% 27 185859 2342 38%
c i 35.59 1461 159 1  60  313  251 28% 27 185859 2341 38%
c 
c  seconds     reductions  redundant   irredundant
c          MB      restarts       trail       variables
c             level   conflicts       glue         remaining
c 
c i 35.69 1461 155 1  63  323  260 28% 27 185859 2340 38%
c i 35.96 1461 144 1  73  364  296 28% 28 185859 2339 38%
c i 35.98 1461 140 1  73  378  308 28% 27 185859 2338 38%
c i 35.99 1461 140 1  73  381  308 28% 27 185859 2335 38%
c i 36.29 1461 134 1  82  425  346 28% 28 185859 2334 38%
c i 36.46 1461 126 1  86  470  382 28% 28 185859 2333 38%
c i 36.52 1461 117 1  89  523  425 29% 28 185859 2332 38%
c i 36.55 1461 109 1  89  569  456 29% 27 185859 2331 38%
c i 36.55 1461 109 1  89  570  456 29% 27 185859 2330 38%
c i 36.59 1461 106 1  89  594  475 29% 27 185859 2329 38%
c i 36.67 1461 99 1  89  654  527 29% 27 185859 2328 38%
c i 36.67 1461 98 1  89  660  532 29% 27 185859 2327 38%
c i 36.70 1461 97 1  89  684  550 29% 27 185859 2326 38%
c i 36.71 1461 95 1  90  700  563 29% 27 185859 2325 38%
c i 36.71 1461 94 1  90  710  568 29% 27 185859 2324 38%
c i 36.76 1461 89 1  90  778  624 29% 27 185859 2323 38%
c i 36.80 1461 85 1  90  829  663 29% 27 185859 2322 38%
c i 36.89 1461 82 1  90  886  710 29% 26 185859 2321 38%
c } 37.19 1461 81 1  91 1000  785 29% 26 185859 2321 38%
c [ 37.19 1461  0 1  91 1000  785  0% 0 185859 2321 38%
c 
c  seconds    reductions  redundant  irredundant
c          MB     restarts       trail      variables
c            level   conflicts       glue        remaining
c 
c O 37.19 1461 41 1  91 1002  786 21% 1 185859 2321 38%
c i 37.19 1461 41 1  91 1002  786 21% 1 185859 2306 37%
c i 37.30 1461 18 1  91 1025  805 30% 12 185859 2305 37%
c i 37.31 1461 18 1  91 1028  807 30% 12 185859 2304 37%
c i 37.33 1461 17 1  91 1051  825 32% 14 185859 2303 37%
c i 37.34 1461 17 1  91 1059  831 32% 14 185859 2302 37%
c - 37.75 1476 17 2  91 1064  736 32% 14 185498 2302 37%
c i 37.81 1476 19 2  91 1085  752 33% 16 185498 2301 37%
c i 37.83 1476 19 2  91 1102  768 33% 15 185498 2300 37%
c i 37.86 1476 18 2  91 1123  779 33% 15 185498 2299 37%
c i 37.87 1476 18 2  91 1134  788 33% 15 185498 2298 37%
c i 37.92 1476 20 2  91 1184  811 33% 17 185498 2297 37%
c i 37.93 1476 20 2  91 1195  810 33% 17 185498 2296 37%
c i 37.93 1476 20 2  91 1196  810 33% 17 185498 2295 37%
c i 37.97 1476 21 2  91 1252  851 32% 18 185498 2294 37%
c i 38.13 1476 20 2  91 1471  968 32% 17 185498 2293 37%
c i 38.14 1476 20 2  91 1486  976 32% 17 185498 2292 37%
c i 38.23 1476 20 2  91 1615 1048 32% 18 185498 2291 37%
c ] 38.28 1476 20 2  91 1707 1098 31% 17 185498 2291 37%
c 1 38.28 1476 20 2  91 1707 1098 31% 17 185498 2291 37%
c 
c --- [ writing output ] -----------------------------------------------------
c 
c writing simplified CNF to DIMACS file 'simp/33.cubes4811.adj.simp1'
c 
c  seconds    reductions  redundant   irredundant
c          MB     restarts       trail       variables
c            level   conflicts       glue         remaining
c 
c * 38.28 1476 20 2  91 1707 1098 31% 17 185498 2291 37%
c opening file to write 'simp/33.cubes4811.adj.simp1'
c writing 'p cnf 6160 185467' header
c closing file 'simp/33.cubes4811.adj.simp1'
c after writing 90551120 bytes 86.4 MB
c wrote 185467 clauses in 0.76 seconds process time
c 
c --- [ writing extension ] --------------------------------------------------
c 
c writing extension stack to 'simp/33.cubes4811.adj.ext1'
c opening file to write 'simp/33.cubes4811.adj.ext1'
c closing file 'simp/33.cubes4811.adj.ext1'
c after writing 10662 bytes 0.0 MB
c wrote 725 witnesses in 0.00 seconds process time
c 
c --- [ result ] -------------------------------------------------------------
c 
s SATISFIABLE
c 
c --- [ run-time profiling ] -------------------------------------------------
c 
c process time taken by individual solving procedures
c (percentage relative to process time for solving)
c 
c        21.21  124.26% parse
c        17.07  100.00% search
c        14.95   87.58% unstable
c         1.09    6.41% stable
c         1.03    6.01% lucky
c         0.00    0.00% simplify
c   =================================
c        17.07   43.72% solve
c 
c last line shows process time for solving
c (percentage relative to total process time)
c 
c --- [ statistics ] ---------------------------------------------------------
c 
c chronological:               505        29.58 %  of conflicts
c conflicts:                  1707       100.00    per second
c decisions:                 16086       942.37    per second
c fixed:                       725        11.77 %  of all variables
c learned:                    1635        95.78 %  per conflict
c learned_lits:             288100       100.00 %  learned literals
c minimized:                     0         0.00 %  learned literals
c shrunken:                 187328        65.02 %  learned literals
c minishrunken:              18345         6.37 %  learned literals
c propagations:             301730         0.02 M  per second
c reduced:                      97         5.68 %  per conflict
c rephased:                      1      1707.00    interval
c restarts:                     91        18.76    interval
c stabilizing:                   1        41.42 %  of conflicts
c subsumed:                    382         0.01 %  of all clauses
c 
c seconds are measured in process time for solving
c 
c --- [ resources ] ----------------------------------------------------------
c 
c total process time since initialization:        39.04    seconds
c total real time since initialization:           39.41    seconds
c maximum resident set size of process:         1503.60    MB
c 
c --- [ shutting down ] ------------------------------------------------------
c 
c exit 10
WARNING! DIMACS header mismatch: wrong number of variables.
============================[ Problem Statistics ]=============================
|                                                                             |
|  Number of variables:          6120                                         |
|  Number of clauses:          185467                                         |
|  Parse time:                   1.26 s                                       |
|  Simplification time:          0.02 s                                       |
|                                                                             |
============================[ Search Statistics ]====================================================
| Conflicts |          ORIGINAL         |          LEARNT          | Num Sols |      SUBGRAPHS      |
|           |    Vars  Clauses Literals |    Limit  Clauses Lit/Cl |          | Canonical Noncanon. |
=====================================================================================================
|       148 |    6026   185515 19446127 |     2000      147     23 |        0 |        39        48 |
|       455 |    6024   185672 19447982 |     2000      452     52 |        0 |        75       205 |
|       871 |    6020   185863 19450802 |     2000      864     50 |        0 |       153       396 |
|      1312 |    6012   185967 19452277 |     2000     1297     61 |        0 |       181       500 |
|      2086 |    6003   186235 19455918 |     3593     1076     19 |        0 |       285       768 |
|      3296 |    5997   186686 19465029 |     3593     2280     46 |        0 |       444      1219 |
|      4912 |    5986   187163 19470314 |     4988     2100     23 |        0 |       581      1696 |
|      6720 |    5984   187263 19471950 |     4988     3906     68 |        0 |       624      1796 |
|      9323 |    5983   187304 19473174 |     6298     4020     62 |        0 |       659      1837 |
|     13501 |    5981   187638 19478108 |     7552     5051     61 |        0 |       717      2171 |
|     19707 |    5981   188078 19487109 |     8782     7489     73 |        0 |       845      2611 |
|     28876 |    5975   188598 19493730 |    11196     7271     54 |        0 |      1022      3131 |
|     42162 |    5975   188910 19498048 |    13605     8767     60 |        0 |      1117      3443 |
|     62049 |    5975   189336 19504124 |    16006    14455     69 |        0 |      1285      3869 |
|     92265 |    5974   190360 19518401 |    19612    18877     76 |        2 |      1826      4891 |
|    136741 |    5974   191047 19528023 |    24413    20554     77 |        2 |      2054      5578 |
|    204329 |    5974   192797 19556666 |    30413    21142     72 |        2 |      2701      7482 |
|    304518 |    5973   194460 19582826 |    37615    21133     54 |        9 |      3273      9138 |
|    453308 |    5958   195459 19599324 |    46015    25723     53 |        9 |      3838     10139 |
|    681479 |    5926   195423 19578940 |    55237    52715     70 |        9 |      5703     16627 |
=====================================================================================================
Number of solutions   : 9
Canonical subgraphs   : 6206           (26 /sec)
          order  3    : 1              (166667 /sec)
          order  4    : 1              (500000 /sec)
          order  5    : 1              (200000 /sec)
          order  6    : 1              (52632 /sec)
          order  7    : 1              (8065 /sec)
          order  8    : 2              (1328 /sec)
          order  9    : 6              (301 /sec)
          order 10    : 25             (86 /sec)
          order 11    : 103            (40 /sec)
          order 12    : 713            (41 /sec)
          order 13    : 247            (63 /sec)
          order 14    : 1013           (43 /sec)
          order 15    : 1312           (30 /sec)
          order 16    : 1450           (25 /sec)
          order 17    : 878            (21 /sec)
          order 18    : 205            (15 /sec)
          order 19    : 93             (14 /sec)
          order 20    : 68             (14 /sec)
          order 21    : 77             (13 /sec)
          order 22    : 9              (1 /sec)
Noncanonical subgraphs: 17911          (317 /sec)
          order  3    : 0              (-nan /sec)
          order  4    : 0              (-nan /sec)
          order  5    : 0              (-nan /sec)
          order  6    : 0              (-nan /sec)
          order  7    : 0              (-nan /sec)
          order  8    : 0              (-nan /sec)
          order  9    : 0              (-nan /sec)
          order 10    : 0              (-nan /sec)
          order 11    : 0              (-nan /sec)
          order 12    : 0              (-nan /sec)
          order 13    : 5076           (2135 /sec)
          order 14    : 2240           (2485 /sec)
          order 15    : 3488           (790 /sec)
          order 16    : 6284           (195 /sec)
          order 17    : 325            (123 /sec)
          order 18    : 415            (66 /sec)
          order 19    : 0              (-nan /sec)
          order 20    : 2              (60 /sec)
          order 21    : 3              (29 /sec)
Canonicity checking   : 236.504 s
Noncanonicity checking: 56.5514 s
Total canonicity time : 293.055 s
database reductions   : 48
restarts              : 1691
conflicts             : 795129         (985 /sec)
decisions             : 1000725        (0.00 % random) (1239 /sec)
propagations          : 88564873       (109695 /sec)
conflict literals     : 85099596       (58.04 % deleted)
actual reward         : 0.114533
Memory used           : 286.00 MB
CPU time              : 807.376 s

UNSATISFIABLE
